Translating instance to solver...

Set parameter TimeLimit to value 28800
Gurobi Optimizer version 11.0.2 build v11.0.2rc0 (linux64 - "Ubuntu 22.04.4 LTS")

CPU model: Intel(R) Xeon(R) Gold 5120 CPU @ 2.20GHz, instruction set [SSE2|AVX|AVX2|AVX512]
Thread count: 28 physical cores, 56 logical processors, using up to 28 threads

Academic license 2463511 - for non-commercial use only - registered to lu___@cefet-rj.br
Optimize a model with 61055 rows, 30653 columns and 140553 nonzeros
Model fingerprint: 0xb98c0799
Variable types: 1 continuous, 30652 integer (30600 binary)
Coefficient statistics:
  Matrix range     [1e+00, 1e+05]
  Objective range  [3e-01, 8e-01]
  Bounds range     [1e+00, 5e+01]
  RHS range        [1e+00, 5e+01]
Presolve removed 50892 rows and 26438 columns
Presolve time: 0.86s
Presolved: 10163 rows, 4215 columns, 30673 nonzeros
Variable types: 0 continuous, 4215 integer (4164 binary)

Root relaxation: objective 9.514230e-01, 1732 iterations, 0.10 seconds (0.13 work units)

    Nodes    |    Current Node    |     Objective Bounds      |     Work
 Expl Unexpl |  Obj  Depth IntInf | Incumbent    BestBd   Gap | It/Node Time

     0     0    0.95142    0   74          -    0.95142      -     -    1s
H    0     0                       4.3912370    0.95142  78.3%     -    1s
     0     0    1.22356    0   65    4.39124    1.22356  72.1%     -    1s
H    0     0                       1.3676730    1.22356  10.5%     -    2s
     0     0    1.22356    0   59    1.36767    1.22356  10.5%     -    2s
     0     0    1.22356    0   38    1.36767    1.22356  10.5%     -    2s
     0     0    1.22356    0   70    1.36767    1.22356  10.5%     -    2s
     0     0    1.22356    0   89    1.36767    1.22356  10.5%     -    3s
     0     0    1.22356    0   69    1.36767    1.22356  10.5%     -    3s
     0     0    1.22356    0  102    1.36767    1.22356  10.5%     -    3s
     0     0    1.22356    0   92    1.36767    1.22356  10.5%     -    3s
     0     0    1.22356    0   44    1.36767    1.22356  10.5%     -    4s
     0     0    1.22356    0   54    1.36767    1.22356  10.5%     -    4s
     0     0    1.22356    0   37    1.36767    1.22356  10.5%     -    4s
     0     0    1.22356    0   48    1.36767    1.22356  10.5%     -    4s
     0     0    1.22356    0   26    1.36767    1.22356  10.5%     -    4s
     0     0    1.22356    0   56    1.36767    1.22356  10.5%     -    4s
     0     0    1.22356    0   28    1.36767    1.22356  10.5%     -    4s
     0     0    1.22356    0   51    1.36767    1.22356  10.5%     -    4s
     0     0    1.22356    0   40    1.36767    1.22356  10.5%     -    5s
     0     0    1.22356    0   36    1.36767    1.22356  10.5%     -    5s
     0     2    1.22356    0   27    1.36767    1.22356  10.5%     -    5s

Cutting planes:
  Learned: 69
  Gomory: 5
  Lift-and-project: 1
  Implied bound: 275
  Clique: 1
  MIR: 88
  Zero half: 33
  RLT: 25
  Relax-and-lift: 74
  BQP: 1

Explored 306 nodes (73648 simplex iterations) in 7.29 seconds (5.23 work units)
Thread count was 28 (of 56 available processors)

Solution count 2: 1.36767 4.39124 

Optimal solution found (tolerance 1.00e-04)
Best objective 1.367673000000e+00, best bound 1.367673000000e+00, gap 0.0000%

Solver Wallclock Time (for this epsilon): 7.29477596282959 s
Python wallclock Time (for this epsilon): 11.595145225524902 s


Total Elapsed Time (since program call): 185.4922113418579 s

Results:

I = 1.367673 mA
C = 41.0 points
C ~= 16.400000000000002 km^2

Minimum Epsilon for this instance = 10
Maximum Epsilon for this instance = 100

Current Epsilon = 30


Preprocessing Time (for this epsilon): 0.008472204208374023 s


Updated solution vectors:
sol_I = [-0.9176730000000001,-1.223564,-1.367673]
sol_C = [12.0,21.0,41.0]
sol_eps = [10,20,30]
sol_gap = [0.0,0.0,0.0]
